cluster_editing/exact/simple_reductions/graphs/exact161.gr
p cep 279 2000
1 47
1 53
1 89
1 94
1 95
1 102
1 103
1 104
1 107
1 154
1 179
1 189
1 213
1 216
1 222
1 237
1 247
1 264
2 3
2 13
2 15
2 22
2 24
2 27
2 30
2 31
2 55
2 59
2 62
2 64
2 71
2 85
2 87
2 96
2 112
2 115
2 117
2 119
2 126
2 140
2 145
2 159
2 167
2 169
2 180
2 190
2 194
2 214
2 215
2 219
2 235
2 240
2 246
2 262
2 269
2 275
2 276
3 13
3 15
3 22
3 24
3 27
3 30
3 31
3 55
3 59
3 62
3 64
3 71
3 85
3 87
3 112
3 115
3 117
3 119
3 126
3 140
3 145
3 159
3 167
3 169
3 180
3 190
3 194
3 214
3 215
3 219
3 235
3 246
3 261
3 269
3 275
3 276
4 11
4 18
4 28
4 40
4 51
4 52
4 65
4 76
4 90
4 91
4 106
4 127
4 132
4 134
4 150
4 155
4 156
4 193
4 195
4 225
4 232
4 239
4 241
4 242
4 263
4 270
5 153
5 176
5 211
5 251
6 26
6 45
6 48
6 192
6 265
7 14
7 19
7 41
7 42
7 66
7 77
7 101
7 121
7 139
7 191
7 199
7 209
7 267
8 26
8 32
8 43
8 45
8 56
8 70
8 75
8 88
8 136
8 144
8 168
8 174
8 175
8 188
8 192
8 198
8 203
8 210
8 229
8 233
8 236
9 12
9 34
9 69
9 72
9 79
9 89
9 95
9 98
9 105
9 166
9 173
9 197
9 206
9 220
10 93
10 196
10 245
11 16
11 18
11 28
11 40
11 51
11 65
11 76
11 90
11 91
11 106
11 127
11 132
11 134
11 150
11 155
11 156
11 193
11 195
11 225
11 232
11 239
11 241
11 242
11 263
12 34
12 69
12 72
12 105
12 131
12 166
12 184
12 197
12 220
12 226
12 254
13 15
13 22
13 24
13 27
13 30
13 31
13 37
13 55
13 59
13 62
13 63
13 64
13 71
13 85
13 87
13 96
13 109
13 112
13 115
13 117
13 119
13 126
13 140
13 145
13 159
13 167
13 169
13 180
13 190
13 194
13 214
13 215
13 219
13 235
13 240
13 246
13 261
13 262
13 269
13 275
13 276
14 19
14 66
14 77
14 101
14 121
14 191
14 199
14 267
15 22
15 27
15 30
15 31
15 37
15 55
15 62
15 63
15 71
15 85
15 87
15 96
15 112
15 117
15 126
15 140
15 145
15 159
15 167
15 169
15 190
15 194
15 214
15 215
15 235
15 246
15 261
15 262
15 269
15 276
16 18
16 38
16 51
16 65
16 90
16 91
16 97
16 106
16 132
16 134
16 150
16 155
16 187
16 193
16 195
16 211
16 227
16 231
16 239
16 248
16 263
17 146
17 243
17 255
17 266
17 268
18 28
18 40
18 51
18 65
18 76
18 90
18 91
18 106
18 127
18 132
18 134
18 150
18 155
18 193
18 195
18 211
18 225
18 232
18 239
18 241
18 242
18 263
18 270
19 41
19 42
19 66
19 77
19 82
19 101
19 121
19 135
19 139
19 191
19 199
19 267
19 278
21 228
22 24
22 27
22 30
22 31
22 37
22 55
22 59
22 62
22 63
22 64
22 71
22 85
22 87
22 96
22 112
22 115
22 117
22 119
22 126
22 140
22 145
22 159
22 167
22 169
22 180
22 190
22 194
22 214
22 215
22 219
22 235
22 240
22 246
22 261
22 262
22 269
22 275
22 276
24 30
24 31
24 59
24 62
24 64
24 85
24 87
24 112
24 117
24 119
24 126
24 145
24 159
24 167
24 169
24 180
24 190
24 194
24 214
24 215
24 269
24 275
24 276
25 38
25 120
25 170
25 227
25 248
25 260
26 45
26 48
26 192
26 265
27 30
27 31
27 37
27 55
27 62
27 63
27 64
27 71
27 85
27 87
27 96
27 112
27 115
27 117
27 126
27 140
27 145
27 159
27 167
27 169
27 190
27 194
27 214
27 215
27 219
27 235
27 240
27 246
27 261
27 262
27 269
27 275
27 276
28 40
28 51
28 52
28 65
28 76
28 90
28 91
28 106
28 127
28 132
28 134
28 150
28 155
28 156
28 193
28 195
28 225
28 232
28 239
28 241
28 242
28 263
28 270
29 51
29 155
29 211
29 239
30 31
30 37
30 55
30 59
30 62
30 63
30 64
30 71
30 84
30 85
30 87
30 96
30 112
30 115
30 117
30 119
30 126
30 140
30 145
30 159
30 167
30 169
30 180
30 190
30 194
30 208
30 214
30 215
30 219
30 235
30 240
30 246
30 261
30 262
30 269
30 275
30 276
31 37
31 55
31 59
31 62
31 63
31 64
31 71
31 84
31 85
31 87
31 96
31 112
31 115
31 117
31 119
31 126
31 140
31 145
31 159
31 167
31 169
31 180
31 190
31 194
31 214
31 215
31 219
31 235
31 240
31 246
31 261
31 262
31 269
31 275
31 276
32 43
32 75
32 144
32 188
32 233
32 236
34 69
34 72
34 89
34 98
34 105
34 131
34 166
34 173
34 184
34 197
34 206
34 220
34 254
35 73
35 110
35 163
36 231
37 55
37 62
37 63
37 64
37 71
37 85
37 87
37 96
37 112
37 115
37 117
37 140
37 145
37 159
37 167
37 169
37 190
37 194
37 214
37 215
37 219
37 235
37 246
37 261
37 262
37 269
37 275
37 276
38 51
38 120
38 170
38 227
38 248
38 260
39 78
39 83
39 114
39 151
39 183
39 202
40 51
40 52
40 65
40 76
40 90
40 91
40 106
40 125
40 127
40 132
40 134
40 150
40 155
40 156
40 193
40 195
40 225
40 232
40 239
40 241
40 242
40 263
40 270
41 42
41 77
41 82
41 101
41 108
41 121
41 135
41 191
41 199
41 267
41 278
42 66
42 77
42 82
42 101
42 121
42 135
42 139
42 191
42 199
42 209
42 267
42 273
42 278
43 75
43 144
43 188
43 233
43 236
44 68
44 70
44 118
44 128
44 129
44 164
44 171
44 172
44 174
44 175
44 198
44 210
44 218
44 229
44 258
44 271
45 48
45 192
45 265
46 89
46 131
46 184
46 226
46 254
47 53
47 89
47 94
47 95
47 102
47 103
47 104
47 107
47 154
47 179
47 189
47 213
47 216
47 222
47 237
47 264
48 192
49 114
49 151
49 202
50 74
50 224
51 54
51 65
51 76
51 90
51 91
51 97
51 106
51 120
51 127
51 132
51 134
51 150
51 155
51 156
51 161
51 193
51 195
51 211
51 225
51 227
51 231
51 232
51 239
51 242
51 248
51 263
51 270
52 65
52 76
52 90
52 91
52 106
52 125
52 127
52 132
52 150
52 193
52 195
52 211
52 225
52 232
52 239
52 241
52 242
52 263
52 270
53 89
53 94
53 95
53 102
53 103
53 104
53 107
53 154
53 179
53 189
53 213
53 216
53 222
53 237
53 264
54 97
54 155
54 239
55 62
55 63
55 64
55 71
55 85
55 87
55 96
55 112
55 115
55 117
55 119
55 126
55 140
55 145
55 159
55 167
55 169
55 190
55 194
55 214
55 215
55 219
55 235
55 240
55 246
55 261
55 262
55 269
55 275
55 276
56 75
56 88
56 136
56 144
56 168
56 188
56 203
56 233
57 61
57 123
57 157
57 165
57 182
57 185
57 217
57 234
58 201
59 62
59 64
59 85
59 87
59 112
59 117
59 119
59 126
59 145
59 159
59 167
59 169
59 180
59 190
59 194
59 214
59 215
59 269
59 275
59 276
60 80
61 123
61 157
61 165
61 182
61 185
61 217
61 234
62 63
62 64
62 71
62 85
62 87
62 96
62 112
62 115
62 117
62 119
62 126
62 140
62 145
62 159
62 167
62 169
62 180
62 190
62 194
62 214
62 215
62 219
62 235
62 240
62 246
62 261
62 262
62 269
62 275
62 276
63 71
63 85
63 87
63 96
63 112
63 115
63 117
63 140
63 145
63 159
63 167
63 169
63 190
63 194
63 214
63 215
63 219
63 235
63 240
63 246
63 261
63 262
63 269
63 275
63 276
64 85
64 87
64 112
64 115
64 117
64 119
64 126
64 145
64 159
64 167
64 169
64 180
64 190
64 194
64 214
64 215
64 219
64 235
64 261
64 269
64 275
64 276
65 76
65 90
65 91
65 106
65 127
65 132
65 134
65 150
65 155
65 156
65 193
65 195
65 225
65 232
65 239
65 241
65 242
65 263
65 270
66 77
66 101
66 121
66 139
66 191
66 199
66 209
66 267
68 70
68 118
68 128
68 129
68 164
68 171
68 172
68 174
68 175
68 198
68 210
68 218
68 229
68 258
68 271
69 72
69 89
69 95
69 98
69 105
69 131
69 166
69 173
69 184
69 197
69 206
69 220
69 226
69 244
69 254
70 118
70 128
70 129
70 164
70 171
70 172
70 174
70 175
70 198
70 210
70 218
70 229
70 258
70 271
71 85
71 87
71 96
71 109
71 112
71 115
71 117
71 126
71 140
71 145
71 159
71 167
71 169
71 190
71 194
71 214
71 215
71 219
71 235
71 240
71 246
71 261
71 262
71 269
71 275
71 276
72 79
72 89
72 98
72 105
72 131
72 166
72 173
72 184
72 197
72 206
72 220
72 226
72 254
73 110
73 163
74 224
75 88
75 136
75 144
75 168
75 188
75 203
75 233
75 236
76 90
76 91
76 106
76 125
76 127
76 132
76 134
76 150
76 155
76 193
76 195
76 225
76 232
76 239
76 241
76 263
76 270
77 82
77 101
77 121
77 135
77 139
77 141
77 191
77 199
77 209
77 267
77 273
77 278
78 114
78 151
78 183
78 202
78 274
79 89
79 98
79 154
79 173
79 220
79 226
79 237
79 254
80 100
82 108
82 121
82 135
82 191
82 199
82 278
83 114
84 87
84 145
84 190
84 194
84 208
84 215
84 275
84 276
85 87
85 96
85 112
85 115
85 117
85 119
85 126
85 140
85 145
85 159
85 167
85 169
85 180
85 190
85 194
85 214
85 215
85 219
85 235
85 240
85 246
85 261
85 262
85 269
85 275
85 276
86 183
86 202
86 274
87 96
87 112
87 115
87 117
87 119
87 126
87 140
87 145
87 159
87 167
87 169
87 180
87 190
87 194
87 214
87 215
87 219
87 235
87 240
87 246
87 261
87 262
87 269
87 275
87 276
88 136
88 144
88 168
88 203
89 94
89 95
89 98
89 102
89 103
89 104
89 107
89 131
89 154
89 179
89 189
89 197
89 213
89 216
89 220
89 222
89 226
89 237
89 247
89 254
89 264
90 91
90 97
90 106
90 116
90 127
90 132
90 134
90 150
90 155
90 156
90 161
90 195
90 211
90 225
90 231
90 232
90 239
90 241
90 263
90 270
90 279
91 106
91 127
91 132
91 134
91 150
91 155
91 156
91 193
91 195
91 225
91 232
91 239
91 241
91 242
91 263
91 270
92 178
93 196
93 245
94 95
94 102
94 103
94 104
94 107
94 154
94 189
94 213
94 216
94 222
94 237
94 264
95 102
95 103
95 104
95 107
95 154
95 179
95 189
95 213
95 216
95 222
95 237
95 247
95 264
96 112
96 117
96 119
96 145
96 159
96 167
96 169
96 190
96 194
96 214
96 215
96 219
96 235
96 246
96 261
96 262
96 269
96 275
96 276
97 155
97 211
97 231
97 239
98 173
98 197
98 220
101 121
101 139
101 191
101 199
101 209
101 267
101 278
102 103
102 104
102 107
102 154
102 179
102 189
102 213
102 216
102 222
102 237
102 264
103 104
103 107
103 154
103 179
103 189
103 213
103 216
103 222
103 237
103 264
104 107
104 154
104 179
104 189
104 213
104 216
104 222
104 237
104 264
105 166
105 173
105 197
105 206
105 220
106 127
106 132
106 134
106 150
106 155
106 156
106 193
106 195
106 225
106 232
106 239
106 241
106 242
106 263
106 270
107 154
107 179
107 189
107 213
107 216
107 222
107 237
107 264
108 199
108 273
108 278
109 246
110 163
111 221
112 115
112 117
112 119
112 126
112 140
112 145
112 159
112 167
112 169
112 180
112 190
112 194
112 214
112 215
112 219
112 235
112 240
112 246
112 261
112 262
112 269
112 275
112 276
113 186
114 151
114 183
114 202
114 274
115 117
115 126
115 140
115 145
115 159
115 167
115 169
115 180
115 190
115 194
115 214
115 215
115 219
115 235
115 240
115 246
115 261
115 262
115 269
115 275
115 276
116 161
116 239
117 119
117 126
117 140
117 145
117 159
117 167
117 169
117 180
117 190
117 194
117 214
117 215
117 219
117 235
117 240
117 246
117 261
117 262
117 269
117 275
117 276
118 128
118 129
118 171
118 172
118 174
118 175
118 198
118 210
118 218
118 229
118 258
118 271
119 126
119 145
119 159
119 167
119 169
119 180
119 190
119 194
119 214
119 215
119 219
119 269
119 275
119 276
120 170
120 227
120 248
120 260
121 135
121 139
121 191
121 199
121 209
121 267
121 273
121 278
122 200
123 157
123 165
123 182
123 185
123 217
123 234
124 155
124 253
125 155
125 225
125 232
125 241
126 140
126 145
126 159
126 167
126 169
126 180
126 190
126 194
126 214
126 215
126 219
126 235
126 246
126 261
126 269
126 275
126 276
127 132
127 134
127 150
127 155
127 156
127 193
127 195
127 225
127 232
127 239
127 241
127 242
127 263
127 270
128 129
128 172
128 174
128 175
128 198
128 210
128 218
128 229
128 258
128 271
129 164
129 171
129 172
129 174
129 175
129 198
129 210
129 218
129 229
129 258
129 271
131 166
131 184
131 197
131 220
131 226
131 254
132 134
132 150
132 155
132 156
132 193
132 195
132 225
132 232
132 239
132 241
132 242
132 263
132 270
134 150
134 155
134 156
134 193
134 195
134 225
134 232
134 239
134 241
134 242
134 263
134 270
135 191
135 199
135 278
136 144
136 168
136 203
136 233
138 143
138 147
138 187
138 211
139 191
139 199
139 209
139 267
140 145
140 159
140 167
140 169
140 190
140 194
140 214
140 215
140 219
140 235
140 240
140 246
140 261
140 262
140 269
140 275
140 276
142 178
143 147
143 187
143 211
144 168
144 188
144 203
144 233
144 236
145 159
145 167
145 169
145 180
145 190
145 194
145 214
145 215
145 219
145 235
145 240
145 246
145 261
145 262
145 269
145 275
145 276
146 243
146 255
146 266
146 268
147 187
147 211
149 238
150 155
150 156
150 193
150 195
150 225
150 239
150 241
150 242
150 263
150 270
151 183
151 202
151 274
153 176
153 211
153 251
154 179
154 189
154 213
154 216
154 222
154 237
154 264
155 156
155 193
155 195
155 211
155 225
155 231
155 239
155 241
155 242
155 253
155 263
155 270
156 193
156 195
156 239
156 242
156 263
156 270
157 165
157 182
157 185
157 217
157 234
158 212
159 167
159 169
159 180
159 190
159 194
159 214
159 215
159 219
159 235
159 240
159 246
159 261
159 262
159 269
159 275
159 276
161 279
162 257
164 171
164 172
164 174
164 175
164 198
164 210
164 218
164 229
164 258
164 271
165 182
165 185
165 217
165 234
166 184
166 197
166 206
166 220
166 226
166 254
167 169
167 180
167 190
167 194
167 214
167 215
167 219
167 235
167 240
167 246
167 261
167 262
167 269
167 275
167 276
168 203
168 233
169 180
169 190
169 194
169 214
169 215
169 219
169 235
169 240
169 246
169 261
169 262
169 269
169 275
169 276
170 227
170 248
170 260
171 172
171 174
171 175
171 198
171 210
171 218
171 229
171 258
171 271
172 174
172 175
172 198
172 210
172 218
172 229
172 258
172 271
173 197
173 206
173 220
174 175
174 198
174 210
174 218
174 229
174 258
174 271
175 198
175 210
175 218
175 229
175 258
175 271
176 211
176 251
177 256
179 189
179 213
179 216
179 222
179 237
179 247
179 264
180 190
180 194
180 214
180 215
180 219
180 235
180 261
180 269
180 275
180 276
182 185
182 217
182 234
183 202
183 274
184 197
184 220
184 226
184 254
185 217
185 234
187 211
187 239
188 233
188 236
189 213
189 216
189 222
189 237
189 264
190 194
190 208
190 214
190 215
190 219
190 235
190 240
190 246
190 261
190 262
190 269
190 275
190 276
191 199
191 209
191 267
191 278
192 265
193 195
193 225
193 232
193 239
193 241
193 242
193 263
193 270
194 214
194 215
194 219
194 235
194 240
194 246
194 261
194 262
194 269
194 275
194 276
195 225
195 232
195 239
195 241
195 242
195 263
195 270
196 245
197 206
197 220
198 210
198 218
198 229
198 258
198 271
199 267
199 278
202 274
205 249
205 259
205 277
208 214
208 269
209 267
210 218
210 229
210 258
210 271
211 231
211 239
211 248
211 251
213 216
213 222
213 237
213 264
214 215
214 219
214 235
214 240
214 246
214 261
214 262
214 269
214 275
214 276
215 219
215 235
215 240
215 246
215 261
215 262
215 269
215 275
215 276
216 222
216 237
216 264
217 234
218 229
218 258
218 271
219 235
219 240
219 246
219 261
219 262
219 269
219 275
219 276
220 226
220 254
222 237
222 264
223 272
225 232
225 239
225 241
225 263
225 270
226 254
227 248
227 260
229 258
229 271
231 248
232 239
232 241
232 263
232 270
233 236
235 240
235 246
235 261
235 262
235 269
235 275
235 276
237 247
237 264
239 241
239 253
239 263
239 270
240 246
240 261
240 262
240 269
240 275
240 276
241 242
241 263
241 270
242 263
242 270
243 255
243 266
243 268
246 261
246 262
246 269
246 275
246 276
247 264
248 260
249 259
249 277
255 266
255 268
258 271
259 277
261 262
261 269
261 275
261 276
262 269
262 275
262 276
263 270
266 268
269 275
269 276
273 278
275 276
