cluster_editing/exact/simple_reductions/graphs/exact161.gr.metis
279 2000
47 53 89 94 95 102 103 104 107 154 179 189 213 216 222 237 247 264 
3 13 15 22 24 27 30 31 55 59 62 64 71 85 87 96 112 115 117 119 126 140 145 159 167 169 180 190 194 214 215 219 235 240 246 262 269 275 276 
2 13 15 22 24 27 30 31 55 59 62 64 71 85 87 112 115 117 119 126 140 145 159 167 169 180 190 194 214 215 219 235 246 261 269 275 276 
11 18 28 40 51 52 65 76 90 91 106 127 132 134 150 155 156 193 195 225 232 239 241 242 263 270 
153 176 211 251 
26 45 48 192 265 
14 19 41 42 66 77 101 121 139 191 199 209 267 
26 32 43 45 56 70 75 88 136 144 168 174 175 188 192 198 203 210 229 233 236 
12 34 69 72 79 89 95 98 105 166 173 197 206 220 
93 196 245 
4 16 18 28 40 51 65 76 90 91 106 127 132 134 150 155 156 193 195 225 232 239 241 242 263 
9 34 69 72 105 131 166 184 197 220 226 254 
2 3 15 22 24 27 30 31 37 55 59 62 63 64 71 85 87 96 109 112 115 117 119 126 140 145 159 167 169 180 190 194 214 215 219 235 240 246 261 262 269 275 276 
7 19 66 77 101 121 191 199 267 
2 3 13 22 27 30 31 37 55 62 63 71 85 87 96 112 117 126 140 145 159 167 169 190 194 214 215 235 246 261 262 269 276 
11 18 38 51 65 90 91 97 106 132 134 150 155 187 193 195 211 227 231 239 248 263 
146 243 255 266 268 
4 11 16 28 40 51 65 76 90 91 106 127 132 134 150 155 193 195 211 225 232 239 241 242 263 270 
7 14 41 42 66 77 82 101 121 135 139 191 199 267 278 

228 
2 3 13 15 24 27 30 31 37 55 59 62 63 64 71 85 87 96 112 115 117 119 126 140 145 159 167 169 180 190 194 214 215 219 235 240 246 261 262 269 275 276 

2 3 13 22 30 31 59 62 64 85 87 112 117 119 126 145 159 167 169 180 190 194 214 215 269 275 276 
38 120 170 227 248 260 
6 8 45 48 192 265 
2 3 13 15 22 30 31 37 55 62 63 64 71 85 87 96 112 115 117 126 140 145 159 167 169 190 194 214 215 219 235 240 246 261 262 269 275 276 
4 11 18 40 51 52 65 76 90 91 106 127 132 134 150 155 156 193 195 225 232 239 241 242 263 270 
51 155 211 239 
2 3 13 15 22 24 27 31 37 55 59 62 63 64 71 84 85 87 96 112 115 117 119 126 140 145 159 167 169 180 190 194 208 214 215 219 235 240 246 261 262 269 275 276 
2 3 13 15 22 24 27 30 37 55 59 62 63 64 71 84 85 87 96 112 115 117 119 126 140 145 159 167 169 180 190 194 214 215 219 235 240 246 261 262 269 275 276 
8 43 75 144 188 233 236 

9 12 69 72 89 98 105 131 166 173 184 197 206 220 254 
73 110 163 
231 
13 15 22 27 30 31 55 62 63 64 71 85 87 96 112 115 117 140 145 159 167 169 190 194 214 215 219 235 246 261 262 269 275 276 
16 25 51 120 170 227 248 260 
78 83 114 151 183 202 
4 11 18 28 51 52 65 76 90 91 106 125 127 132 134 150 155 156 193 195 225 232 239 241 242 263 270 
7 19 42 77 82 101 108 121 135 191 199 267 278 
7 19 41 66 77 82 101 121 135 139 191 199 209 267 273 278 
8 32 75 144 188 233 236 
68 70 118 128 129 164 171 172 174 175 198 210 218 229 258 271 
6 8 26 48 192 265 
89 131 184 226 254 
1 53 89 94 95 102 103 104 107 154 179 189 213 216 222 237 264 
6 26 45 192 
114 151 202 
74 224 
4 11 16 18 28 29 38 40 54 65 76 90 91 97 106 120 127 132 134 150 155 156 161 193 195 211 225 227 231 232 239 242 248 263 270 
4 28 40 65 76 90 91 106 125 127 132 150 193 195 211 225 232 239 241 242 263 270 
1 47 89 94 95 102 103 104 107 154 179 189 213 216 222 237 264 
51 97 155 239 
2 3 13 15 22 27 30 31 37 62 63 64 71 85 87 96 112 115 117 119 126 140 145 159 167 169 190 194 214 215 219 235 240 246 261 262 269 275 276 
8 75 88 136 144 168 188 203 233 
61 123 157 165 182 185 217 234 
201 
2 3 13 22 24 30 31 62 64 85 87 112 117 119 126 145 159 167 169 180 190 194 214 215 269 275 276 
80 
57 123 157 165 182 185 217 234 
2 3 13 15 22 24 27 30 31 37 55 59 63 64 71 85 87 96 112 115 117 119 126 140 145 159 167 169 180 190 194 214 215 219 235 240 246 261 262 269 275 276 
13 15 22 27 30 31 37 55 62 71 85 87 96 112 115 117 140 145 159 167 169 190 194 214 215 219 235 240 246 261 262 269 275 276 
2 3 13 22 24 27 30 31 37 55 59 62 85 87 112 115 117 119 126 145 159 167 169 180 190 194 214 215 219 235 261 269 275 276 
4 11 16 18 28 40 51 52 76 90 91 106 127 132 134 150 155 156 193 195 225 232 239 241 242 263 270 
7 14 19 42 77 101 121 139 191 199 209 267 

44 70 118 128 129 164 171 172 174 175 198 210 218 229 258 271 
9 12 34 72 89 95 98 105 131 166 173 184 197 206 220 226 244 254 
8 44 68 118 128 129 164 171 172 174 175 198 210 218 229 258 271 
2 3 13 15 22 27 30 31 37 55 62 63 85 87 96 109 112 115 117 126 140 145 159 167 169 190 194 214 215 219 235 240 246 261 262 269 275 276 
9 12 34 69 79 89 98 105 131 166 173 184 197 206 220 226 254 
35 110 163 
50 224 
8 32 43 56 88 136 144 168 188 203 233 236 
4 11 18 28 40 51 52 65 90 91 106 125 127 132 134 150 155 193 195 225 232 239 241 263 270 
7 14 19 41 42 66 82 101 121 135 139 141 191 199 209 267 273 278 
39 114 151 183 202 274 
9 72 89 98 154 173 220 226 237 254 
60 100 

19 41 42 77 108 121 135 191 199 278 
39 114 
30 31 87 145 190 194 208 215 275 276 
2 3 13 15 22 24 27 30 31 37 55 59 62 63 64 71 87 96 112 115 117 119 126 140 145 159 167 169 180 190 194 214 215 219 235 240 246 261 262 269 275 276 
183 202 274 
2 3 13 15 22 24 27 30 31 37 55 59 62 63 64 71 84 85 96 112 115 117 119 126 140 145 159 167 169 180 190 194 214 215 219 235 240 246 261 262 269 275 276 
8 56 75 136 144 168 203 
1 9 34 46 47 53 69 72 79 94 95 98 102 103 104 107 131 154 179 189 197 213 216 220 222 226 237 247 254 264 
4 11 16 18 28 40 51 52 65 76 91 97 106 116 127 132 134 150 155 156 161 195 211 225 231 232 239 241 263 270 279 
4 11 16 18 28 40 51 52 65 76 90 106 127 132 134 150 155 156 193 195 225 232 239 241 242 263 270 
178 
10 196 245 
1 47 53 89 95 102 103 104 107 154 189 213 216 222 237 264 
1 9 47 53 69 89 94 102 103 104 107 154 179 189 213 216 222 237 247 264 
2 13 15 22 27 30 31 37 55 62 63 71 85 87 112 117 119 145 159 167 169 190 194 214 215 219 235 246 261 262 269 275 276 
16 51 54 90 155 211 231 239 
9 34 69 72 79 89 173 197 220 

80 
7 14 19 41 42 66 77 121 139 191 199 209 267 278 
1 47 53 89 94 95 103 104 107 154 179 189 213 216 222 237 264 
1 47 53 89 94 95 102 104 107 154 179 189 213 216 222 237 264 
1 47 53 89 94 95 102 103 107 154 179 189 213 216 222 237 264 
9 12 34 69 72 166 173 197 206 220 
4 11 16 18 28 40 51 52 65 76 90 91 127 132 134 150 155 156 193 195 225 232 239 241 242 263 270 
1 47 53 89 94 95 102 103 104 154 179 189 213 216 222 237 264 
41 82 199 273 278 
13 71 246 
35 73 163 
221 
2 3 13 15 22 24 27 30 31 37 55 59 62 63 64 71 85 87 96 115 117 119 126 140 145 159 167 169 180 190 194 214 215 219 235 240 246 261 262 269 275 276 
186 
39 49 78 83 151 183 202 274 
2 3 13 22 27 30 31 37 55 62 63 64 71 85 87 112 117 126 140 145 159 167 169 180 190 194 214 215 219 235 240 246 261 262 269 275 276 
90 161 239 
2 3 13 15 22 24 27 30 31 37 55 59 62 63 64 71 85 87 96 112 115 119 126 140 145 159 167 169 180 190 194 214 215 219 235 240 246 261 262 269 275 276 
44 68 70 128 129 171 172 174 175 198 210 218 229 258 271 
2 3 13 22 24 30 31 55 59 62 64 85 87 96 112 117 126 145 159 167 169 180 190 194 214 215 219 269 275 276 
25 38 51 170 227 248 260 
7 14 19 41 42 66 77 82 101 135 139 191 199 209 267 273 278 
200 
57 61 157 165 182 185 217 234 
155 253 
40 52 76 155 225 232 241 
2 3 13 15 22 24 27 30 31 55 59 62 64 71 85 87 112 115 117 119 140 145 159 167 169 180 190 194 214 215 219 235 246 261 269 275 276 
4 11 18 28 40 51 52 65 76 90 91 106 132 134 150 155 156 193 195 225 232 239 241 242 263 270 
44 68 70 118 129 172 174 175 198 210 218 229 258 271 
44 68 70 118 128 164 171 172 174 175 198 210 218 229 258 271 

12 34 46 69 72 89 166 184 197 220 226 254 
4 11 16 18 28 40 51 52 65 76 90 91 106 127 134 150 155 156 193 195 225 232 239 241 242 263 270 

4 11 16 18 28 40 51 65 76 90 91 106 127 132 150 155 156 193 195 225 232 239 241 242 263 270 
19 41 42 77 82 121 191 199 278 
8 56 75 88 144 168 203 233 

143 147 187 211 
7 19 42 66 77 101 121 191 199 209 267 
2 3 13 15 22 27 30 31 37 55 62 63 71 85 87 112 115 117 126 145 159 167 169 190 194 214 215 219 235 240 246 261 262 269 275 276 
77 
178 
138 147 187 211 
8 32 43 56 75 88 136 168 188 203 233 236 
2 3 13 15 22 24 27 30 31 37 55 59 62 63 64 71 84 85 87 96 112 115 117 119 126 140 159 167 169 180 190 194 214 215 219 235 240 246 261 262 269 275 276 
17 243 255 266 268 
138 143 187 211 

238 
4 11 16 18 28 40 51 52 65 76 90 91 106 127 132 134 155 156 193 195 225 239 241 242 263 270 
39 49 78 114 183 202 274 

5 176 211 251 
1 47 53 79 89 94 95 102 103 104 107 179 189 213 216 222 237 264 
4 11 16 18 28 29 40 51 54 65 76 90 91 97 106 124 125 127 132 134 150 156 193 195 211 225 231 239 241 242 253 263 270 
4 11 28 40 51 65 90 91 106 127 132 134 150 155 193 195 239 242 263 270 
57 61 123 165 182 185 217 234 
212 
2 3 13 15 22 24 27 30 31 37 55 59 62 63 64 71 85 87 96 112 115 117 119 126 140 145 167 169 180 190 194 214 215 219 235 240 246 261 262 269 275 276 

51 90 116 279 
257 
35 73 110 
44 68 70 129 171 172 174 175 198 210 218 229 258 271 
57 61 123 157 182 185 217 234 
9 12 34 69 72 105 131 184 197 206 220 226 254 
2 3 13 15 22 24 27 30 31 37 55 59 62 63 64 71 85 87 96 112 115 117 119 126 140 145 159 169 180 190 194 214 215 219 235 240 246 261 262 269 275 276 
8 56 75 88 136 144 203 233 
2 3 13 15 22 24 27 30 31 37 55 59 62 63 64 71 85 87 96 112 115 117 119 126 140 145 159 167 180 190 194 214 215 219 235 240 246 261 262 269 275 276 
25 38 120 227 248 260 
44 68 70 118 129 164 172 174 175 198 210 218 229 258 271 
44 68 70 118 128 129 164 171 174 175 198 210 218 229 258 271 
9 34 69 72 79 98 105 197 206 220 
8 44 68 70 118 128 129 164 171 172 175 198 210 218 229 258 271 
8 44 68 70 118 128 129 164 171 172 174 198 210 218 229 258 271 
5 153 211 251 
256 
92 142 
1 47 53 89 95 102 103 104 107 154 189 213 216 222 237 247 264 
2 3 13 22 24 30 31 59 62 64 85 87 112 115 117 119 126 145 159 167 169 190 194 214 215 219 235 261 269 275 276 

57 61 123 157 165 185 217 234 
39 78 86 114 151 202 274 
12 34 46 69 72 131 166 197 220 226 254 
57 61 123 157 165 182 217 234 
113 
16 138 143 147 211 239 
8 32 43 56 75 144 233 236 
1 47 53 89 94 95 102 103 104 107 154 179 213 216 222 237 264 
2 3 13 15 22 24 27 30 31 37 55 59 62 63 64 71 84 85 87 96 112 115 117 119 126 140 145 159 167 169 180 194 208 214 215 219 235 240 246 261 262 269 275 276 
7 14 19 41 42 66 77 82 101 121 135 139 199 209 267 278 
6 8 26 45 48 265 
4 11 16 18 28 40 51 52 65 76 91 106 127 132 134 150 155 156 195 225 232 239 241 242 263 270 
2 3 13 15 22 24 27 30 31 37 55 59 62 63 64 71 84 85 87 96 112 115 117 119 126 140 145 159 167 169 180 190 214 215 219 235 240 246 261 262 269 275 276 
4 11 16 18 28 40 51 52 65 76 90 91 106 127 132 134 150 155 156 193 225 232 239 241 242 263 270 
10 93 245 
9 12 34 69 72 89 98 105 131 166 173 184 206 220 
8 44 68 70 118 128 129 164 171 172 174 175 210 218 229 258 271 
7 14 19 41 42 66 77 82 101 108 121 135 139 191 267 278 
122 
58 
39 49 78 86 114 151 183 274 
8 56 75 88 136 144 168 

249 259 277 
9 34 69 72 105 166 173 197 

30 84 190 214 269 
7 42 66 77 101 121 139 191 267 
8 44 68 70 118 128 129 164 171 172 174 175 198 218 229 258 271 
5 16 18 29 51 52 90 97 138 143 147 153 155 176 187 231 239 248 251 
158 
1 47 53 89 94 95 102 103 104 107 154 179 189 216 222 237 264 
2 3 13 15 22 24 27 30 31 37 55 59 62 63 64 71 85 87 96 112 115 117 119 126 140 145 159 167 169 180 190 194 208 215 219 235 240 246 261 262 269 275 276 
2 3 13 15 22 24 27 30 31 37 55 59 62 63 64 71 84 85 87 96 112 115 117 119 126 140 145 159 167 169 180 190 194 214 219 235 240 246 261 262 269 275 276 
1 47 53 89 94 95 102 103 104 107 154 179 189 213 222 237 264 
57 61 123 157 165 182 185 234 
44 68 70 118 128 129 164 171 172 174 175 198 210 229 258 271 
2 3 13 22 27 30 31 37 55 62 63 64 71 85 87 96 112 115 117 119 126 140 145 159 167 169 180 190 194 214 215 235 240 246 261 262 269 275 276 
9 12 34 69 72 79 89 98 105 131 166 173 184 197 226 254 
111 
1 47 53 89 94 95 102 103 104 107 154 179 189 213 216 237 264 
272 
50 74 
4 11 18 28 40 51 52 65 76 90 91 106 125 127 132 134 150 155 193 195 232 239 241 263 270 
12 46 69 72 79 89 131 166 184 220 254 
16 25 38 51 120 170 248 260 
21 
8 44 68 70 118 128 129 164 171 172 174 175 198 210 218 258 271 

16 36 51 90 97 155 211 248 
4 11 18 28 40 51 52 65 76 90 91 106 125 127 132 134 193 195 225 239 241 263 270 
8 32 43 56 75 136 144 168 188 236 
57 61 123 157 165 182 185 217 
2 3 13 15 22 27 30 31 37 55 62 63 64 71 85 87 96 112 115 117 126 140 145 159 167 169 180 190 194 214 215 219 240 246 261 262 269 275 276 
8 32 43 75 144 188 233 
1 47 53 79 89 94 95 102 103 104 107 154 179 189 213 216 222 247 264 
149 
4 11 16 18 28 29 40 51 52 54 65 76 90 91 97 106 116 127 132 134 150 155 156 187 193 195 211 225 232 241 253 263 270 
2 13 22 27 30 31 55 62 63 71 85 87 112 115 117 140 145 159 167 169 190 194 214 215 219 235 246 261 262 269 275 276 
4 11 18 28 40 52 65 76 90 91 106 125 127 132 134 150 155 193 195 225 232 239 242 263 270 
4 11 18 28 40 51 52 65 91 106 127 132 134 150 155 156 193 195 241 263 270 
17 146 255 266 268 
69 
10 93 196 
2 3 13 15 22 27 30 31 37 55 62 63 71 85 87 96 109 112 115 117 126 140 145 159 167 169 190 194 214 215 219 235 240 261 262 269 275 276 
1 89 95 179 237 264 
16 25 38 51 120 170 211 227 231 260 
205 259 277 

5 153 176 211 

124 155 239 
12 34 46 69 72 79 89 131 166 184 220 226 
17 146 243 266 268 
177 
162 
44 68 70 118 128 129 164 171 172 174 175 198 210 218 229 271 
205 249 277 
25 38 120 170 227 248 
3 13 15 22 27 30 31 37 55 62 63 64 71 85 87 96 112 115 117 126 140 145 159 167 169 180 190 194 214 215 219 235 240 246 262 269 275 276 
2 13 15 22 27 30 31 37 55 62 63 71 85 87 96 112 115 117 140 145 159 167 169 190 194 214 215 219 235 240 246 261 269 275 276 
4 11 16 18 28 40 51 52 65 76 90 91 106 127 132 134 150 155 156 193 195 225 232 239 241 242 270 
1 47 53 89 94 95 102 103 104 107 154 179 189 213 216 222 237 247 
6 26 45 192 
17 146 243 255 268 
7 14 19 41 42 66 77 101 121 139 191 199 209 
17 146 243 255 266 
2 3 13 15 22 24 27 30 31 37 55 59 62 63 64 71 85 87 96 112 115 117 119 126 140 145 159 167 169 180 190 194 208 214 215 219 235 240 246 261 262 275 276 
4 18 28 40 51 52 65 76 90 91 106 127 132 134 150 155 156 193 195 225 232 239 241 242 263 
44 68 70 118 128 129 164 171 172 174 175 198 210 218 229 258 
223 
42 77 108 121 278 
78 86 114 151 183 202 
2 3 13 22 24 27 30 31 37 55 59 62 63 64 71 84 85 87 96 112 115 117 119 126 140 145 159 167 169 180 190 194 214 215 219 235 240 246 261 262 269 276 
2 3 13 15 22 24 27 30 31 37 55 59 62 63 64 71 84 85 87 96 112 115 117 119 126 140 145 159 167 169 180 190 194 214 215 219 235 240 246 261 262 269 275 
205 249 259 
19 41 42 77 82 101 108 121 135 191 199 273 
90 161 
